(declare-fun e () String)
(declare-fun c () String)
(declare-fun g () String)
(declare-fun b () String)
(declare-fun d () String)
(declare-fun a () String)
(declare-fun h () String)
(assert (= (str.++ b a "f" g) (str.++ e h "c")))
(assert (= (str.++ g "aeg") (str.++ c "b" d "f" c)))
(assert (= "e" b))

(check-sat)
